************************************************************************
file with basedata            : cr452_.bas
initial value random generator: 1343428471
************************************************************************
projects                      :  1
jobs (incl. supersource/sink ):  18
horizon                       :  141
RESOURCES
  - renewable                 :  4   R
  - nonrenewable              :  2   N
  - doubly constrained        :  0   D
************************************************************************
PROJECT INFORMATION:
pronr.  #jobs rel.date duedate tardcost  MPM-Time
    1     16      0       24       10       24
************************************************************************
PRECEDENCE RELATIONS:
jobnr.    #modes  #successors   successors
   1        1          3           2   3   4
   2        3          3           5   7  12
   3        3          3           7   9  12
   4        3          2           8  16
   5        3          2           6  11
   6        3          3           9  15  16
   7        3          1          10
   8        3          2          11  12
   9        3          1          17
  10        3          3          11  15  16
  11        3          2          13  14
  12        3          3          13  14  15
  13        3          1          17
  14        3          1          17
  15        3          1          18
  16        3          1          18
  17        3          1          18
  18        1          0        
************************************************************************
REQUESTS/DURATIONS:
jobnr. mode duration  R 1  R 2  R 3  R 4  N 1  N 2
------------------------------------------------------------------------
  1      1     0       0    0    0    0    0    0
  2      1     1       5    6    0    0    6    7
         2     6       4    0    4    0    6    5
         3     9       0    6    0    0    5    2
  3      1     4      10    8    0    2    7    7
         2     6       5    0    7    2    6    6
         3     6       7    3    0    2    5    5
  4      1     6      10    0    0    7    6    3
         2     9       0    0    6    0    5    3
         3     9       0    9    0    0    6    3
  5      1     4       0    8    0    0    4    7
         2     9       0    7    0    0    4    5
         3    10       0    2    6    4    3    4
  6      1     5       7    0    5    0   10    4
         2    10       5    0    5    0    9    2
         3    10       5    6    0    0   10    3
  7      1     2       5    0    0    2    6   10
         2     7       0    7    0    0    6    7
         3    10       4    0    1    0    5    4
  8      1     1       5    3    0    0    7    6
         2     1       0    0    8    0    7    8
         3    10       8    3    4    3    3    6
  9      1     6      10    0    5    0    4    6
         2     6       5    7    7    0    4    6
         3    10       0    6    0    5    2    5
 10      1     4       5    8    0    0    8    8
         2     7       0    0    7    0    8    6
         3     9       3    3    0    2    8    4
 11      1     6       0    0    9    0    7    3
         2     6       0    7    9    0    5    3
         3     8       5    0    8    0    2    2
 12      1     1       8    0    0    7    3   10
         2     5       6    7    3    0    2   10
         3     7       0    0    0    7    2    9
 13      1     2       0    3    0    9    3    5
         2     7       7    0    0    9    3    5
         3     9       6    0   10    0    3    5
 14      1     6       0    9    8    0    6    9
         2     7       9    0    7    6    5    8
         3    10       0    5    7    2    3    5
 15      1     1       6    3    0    0    7    5
         2     7       0    0    6    0    7    5
         3    10       0    0    0    7    4    5
 16      1     4       8    0    2    0    9   10
         2     7       0    0    0    6    7    5
         3    10       0    0    0    4    3    3
 17      1     2       0    2    5   10    5   10
         2     3       2    2    5    0    4    9
         3     4       2    0    5    8    2    9
 18      1     0       0    0    0    0    0    0
************************************************************************
RESOURCEAVAILABILITIES:
  R 1  R 2  R 3  R 4  N 1  N 2
   26   25   24   33   90  102
************************************************************************
